/*********************************************
 * OPL 12.6.0.0 Data
 * Author: Adrian Rodriguez Bazaga, Pau Rodriguez Esmerats
 * Creation Date: 10/12/2017 at 07:27:31
 *********************************************/

maxConsec=8;
maxPresence=16;
maxHours=10;
minHours=2;
hours=24;
demand= [73 91 92 82 77 70 79 92 62 79 67 57 43 39 22 18 7 5 2 4 0 3 0 1  ];
nNurses=120;
